unsat
( c0
  c1
  c126
  c127
  c128
  c129
  c130
  c131
  c132
  c133
  c134
  c135
  c136
  c137
  c141
  c142
  c147
  c156
  c175
  c178
  c184
  c193
  c197
  c2
  c200
  c206
  c215
  c219
  c222
  c228
  c237
  c241
  c244
  c248
  c257
  c263
  c266
  c30
  c302
  c304
  c309
  c318
  c322
  c324
  c326
  c328
  c33
  c330
  c331
  c340
  c346
  c350
  c352
  c355
  c357
  c360
  c362
  c364
  c366
  c368
  c372
  c374
  c375
  c379
  c382
  c384
  c388
  c390
  c394
  c397
  c401
  c404
  c406
  c408
  c410
  c412
  c416
  c419
  c42
  c421
  c425
  c428
  c43
  c430
  c438
  c44
  c450
  c455
  c456
  c457
  c461
  c465
  c475
  c482
  c486
  c497
  c504
  c508
  c515
  c519
  c526
  c528
  c533
  c535
  c539
  c541
  c546
  c55
  c550
  c552
  c554
  c561
  c563
  c565
  c57
  c574
  c579
  c585
  c59
  c597
  c60
  c61
  c618
  c62
  c624
  c626
  c629
  c63
  c635
  c637
  c64
  c640
  c65
  c651
  c657
  c659
  c66
  c660
  c665
  c667
  c67
  c670
  c672
  c677
  c68
  c680
  c682
  c684
  c69
  c690
  c692
  c694
  c70
  c700
  c702
  c704
  c71
  c712
  c714
  c72
  c73
  c74
  c747
  c75
  c754
  c756
  c76
  c760
  c769
  c77
  c773
  c776
  c778
  c78
  c780
  c781
  c786
  c788
  c790
  c81
  c82
  c821
  c822
  c825
  c826
  c828
  c829
  c830
  c831
  c832
  c833
  c835
  c836
  c839
  c841
  c842
  c843
  c844
  c845
  c846
  c847
  c848
  c849
  c854
  c858
  c863
  c867
  c871
  c873
  c874
  c876
  c883
  c886
  c891
  c893
  c894
  c899
  c90
  c902
  c908
  c910
  c912
  c913
  c918
  c921
  c922
  c924
  c925
  c927
  c929
  c93
  c931
  c932
  c937
  c94
  c940
  c941
  c943
  c944
  c946
  c948
  c950
  c951
  c956
  c957
  c96
  c960
  c970
  c976
  c977
  c978
  c980
  c982
  c983
  c984
  c985
  c989
  c990
  c991
  c992
  c993
  c994
  c995 )
